21° run output:
{
    "Function": "kroB300.tsp",
    "Problem dimension": [
        102,
        47,
        120,
        125,
        8,
        33,
        114,
        262,
        124,
        63,
        242,
        46,
        177,
        208,
        279,
        66,
        9,
        10,
        62,
        237,
        44,
        149,
        61,
        92,
        189,
        90,
        135,
        130,
        207,
        195,
        267,
        50,
        274,
        256,
        69,
        293,
        299,
        106,
        31,
        45,
        128,
        171,
        252,
        221,
        83,
        53,
        29,
        110,
        188,
        20,
        56,
        148,
        175,
        82,
        181,
        228,
        232,
        219,
        28,
        200,
        231,
        161,
        154,
        246,
        233,
        184,
        254,
        258,
        243,
        48,
        282,
        277,
        78,
        112,
        140,
        240,
        227,
        74,
        72,
        84,
        38,
        280,
        81,
        142,
        276,
        138,
        103,
        190,
        214,
        164,
        225,
        40,
        150,
        14,
        223,
        107,
        85,
        192,
        158,
        205,
        144,
        220,
        60,
        151,
        209,
        287,
        95,
        222,
        6,
        257,
        12,
        159,
        236,
        43,
        199,
        261,
        153,
        260,
        136,
        129,
        134,
        22,
        42,
        176,
        109,
        285,
        265,
        234,
        113,
        132,
        253,
        245,
        65,
        288,
        5,
        146,
        86,
        270,
        2,
        239,
        116,
        156,
        167,
        216,
        76,
        17,
        152,
        104,
        201,
        172,
        160,
        24,
        19,
        3,
        291,
        118,
        296,
        247,
        275,
        89,
        269,
        271,
        68,
        79,
        71,
        238,
        115,
        263,
        80,
        229,
        284,
        182,
        15,
        186,
        212,
        194,
        101,
        91,
        206,
        119,
        298,
        268,
        174,
        169,
        224,
        100,
        126,
        255,
        193,
        187,
        64,
        39,
        196,
        4,
        37,
        96,
        179,
        294,
        163,
        35,
        215,
        249,
        59,
        281,
        211,
        123,
        54,
        170,
        162,
        248,
        286,
        23,
        203,
        111,
        226,
        32,
        13,
        49,
        272,
        131,
        204,
        157,
        278,
        145,
        141,
        251,
        97,
        241,
        34,
        133,
        218,
        117,
        41,
        155,
        198,
        88,
        290,
        77,
        202,
        191,
        264,
        127,
        230,
        75,
        122,
        173,
        168,
        57,
        73,
        292,
        183,
        99,
        273,
        147,
        18,
        1,
        30,
        108,
        16,
        297,
        143,
        250,
        165,
        70,
        213,
        0,
        67,
        180,
        25,
        210,
        178,
        55,
        121,
        244,
        137,
        166,
        7,
        11,
        259,
        36,
        27,
        217,
        94,
        283,
        26,
        51,
        93,
        235,
        139,
        105,
        21,
        185,
        295,
        98,
        58,
        52,
        197,
        87,
        289,
        266
    ],
    "Global Optimum": 0,
    "Algorithm": "Genetic algorithm",
    "Parameters": {
        "population": 30,
        "offspring": 30,
        "mutation probability": 0.0033333333333333335,
        "crossover probability": 0.9
    },
    "Fitness": 256237,
    "Solution": [
        102,
        47,
        120,
        125,
        8,
        33,
        114,
        262,
        124,
        63,
        242,
        46,
        177,
        208,
        279,
        66,
        9,
        10,
        62,
        237,
        44,
        149,
        61,
        92,
        189,
        90,
        135,
        130,
        207,
        195,
        267,
        50,
        274,
        256,
        69,
        293,
        299,
        106,
        31,
        45,
        128,
        171,
        252,
        221,
        83,
        53,
        29,
        110,
        188,
        20,
        56,
        148,
        175,
        82,
        181,
        228,
        232,
        219,
        28,
        200,
        231,
        161,
        154,
        246,
        233,
        184,
        254,
        258,
        243,
        48,
        282,
        277,
        78,
        112,
        140,
        240,
        227,
        74,
        72,
        84,
        38,
        280,
        81,
        142,
        276,
        138,
        103,
        190,
        214,
        164,
        225,
        40,
        150,
        14,
        223,
        107,
        85,
        192,
        158,
        205,
        144,
        220,
        60,
        151,
        209,
        287,
        95,
        222,
        6,
        257,
        12,
        159,
        236,
        43,
        199,
        261,
        153,
        260,
        136,
        129,
        134,
        22,
        42,
        176,
        109,
        285,
        265,
        234,
        113,
        132,
        253,
        245,
        65,
        288,
        5,
        146,
        86,
        270,
        2,
        239,
        116,
        156,
        167,
        216,
        76,
        17,
        152,
        104,
        201,
        172,
        160,
        24,
        19,
        3,
        291,
        118,
        296,
        247,
        275,
        89,
        269,
        271,
        68,
        79,
        71,
        238,
        115,
        263,
        80,
        229,
        284,
        182,
        15,
        186,
        212,
        194,
        101,
        91,
        206,
        119,
        298,
        268,
        174,
        169,
        224,
        100,
        126,
        255,
        193,
        187,
        64,
        39,
        196,
        4,
        37,
        96,
        179,
        294,
        163,
        35,
        215,
        249,
        59,
        281,
        211,
        123,
        54,
        170,
        162,
        248,
        286,
        23,
        203,
        111,
        226,
        32,
        13,
        49,
        272,
        131,
        204,
        157,
        278,
        145,
        141,
        251,
        97,
        241,
        34,
        133,
        218,
        117,
        41,
        155,
        198,
        88,
        290,
        77,
        202,
        191,
        264,
        127,
        230,
        75,
        122,
        173,
        168,
        57,
        73,
        292,
        183,
        99,
        273,
        147,
        18,
        1,
        30,
        108,
        16,
        297,
        143,
        250,
        165,
        70,
        213,
        0,
        67,
        180,
        25,
        210,
        178,
        55,
        121,
        244,
        137,
        166,
        7,
        11,
        259,
        36,
        27,
        217,
        94,
        283,
        26,
        51,
        93,
        235,
        139,
        105,
        21,
        185,
        295,
        98,
        58,
        52,
        197,
        87,
        289,
        266
    ],
    "Nb of functions evaluations": 400020,
    "Computational time in seconds": 739.6543562412262,
    "Stopping criterion in evaluations": 400000
}